(set-logic ALL)
(set-option :produce-models true)
(declare-sort BoundSet 0)
(declare-sort UnboundSet 0)
(declare-fun IsResearched (BoundSet BoundSet) Bool)
(declare-fun IsMale (BoundSet) Bool)
(declare-fun IsBald (BoundSet) Bool)
(declare-fun IsOrdered (BoundSet BoundSet) Bool)
(declare-fun IsWalkedIn (BoundSet) Bool)
(declare-fun ( (Bool) Bool)
(declare-fun IsDrink (BoundSet) Bool)
(assert (not (=> (and (exists ((a BoundSet)) (exists ((b BoundSet)) (and (IsResearched a b) (and (IsMale a) (IsBald b))))) (forall ((f BoundSet)) (forall ((h BoundSet)) (forall ((g BoundSet)) (=> (IsOrdered f g) (IsMale h)))))) (exists ((e BoundSet)) (exists ((c BoundSet)) (and (exists ((d BoundSet)) (( (and (IsWalkedIn c) (IsOrdered c d)))) (IsDrink e)))))))
(check-sat)
(get-model)